s td 28 7 35
b 1 12 21 22
b 2 4 14
b 3 4 31
b 4 23 26 34
b 5 2 35
b 6 2 6 30
b 7 3 15 16
b 8 9 10 19
b 9 15 16 22
b 10 10 11 17
b 11 19 21 22
b 12 13 25 34
b 13 8 20 31
b 14 1 6 10 13 22 28 29
b 15 1 10 13 22 26 28 29
b 16 7 10 13 26 28
b 17 1 8 10 26 28 29
b 18 1 8 10 20 28
b 19 10 11 20 28
b 20 18 22 26 28
b 21 10 13 22 26 27 29
b 22 10 13 26 27 34
b 23 1 6 16 22
b 24 1 6 10 19 22 28 29
b 25 1 6 13 30
b 26 5 24
b 27 24 33
b 28 32
1 11
1 26
1 28
2 3
3 13
4 22
5 6
6 25
7 9
8 24
9 23
10 19
11 24
12 22
13 18
14 15
14 23
14 24
14 25
15 16
15 17
15 20
15 21
17 18
18 19
21 22
26 27
